50
    1    54    45
    2    90    93
    3    73    67
    4    91   100
    5    40    41
    6    98    91
    7    73    70
    8    88    81
    9    55    46
   10    56    59
   11    54    57
   12   102   100
   13    85    93
   14    69    61
   15    13     6
   16    59    54
   17     4    10
   18    33    25
   19    49    58
   20     1     7
   21    23    14
   22    15    13
   23     1     1
   24    98    96
   25    41    50
   26    23    21
   27    93    95
   28    15    17
   29    40    39
   30    12     4
   31    90    95
   32    44    41
   33    34    25
   34    21    14
   35    37    45
   36    56    62
   37    45    49
   38    10    18
   39    42    37
   40    85    76
   41    14    16
   42    31    23
   43    50    47
   44    59    59
   45    16    16
   46    35    44
   47    89    95
   48    80    79
   49    25    16
   50    54    57
1618
